1409
1   1   0    0    0 0
1   2   128  51   0 8 16 24 37 29 21 13 5 0
1   3   147  53   0 7 15 23 31 39 30 22 14 6 0
1   4   170  54   0 4 12 20 28 36 33 25 17 9 1 0
1   5   170  54   0 3 11 19 27 35 34 26 18 10 2 0
2   1   180  55   0 41 49 57 65 73 38 74 66 58 50 42 0
2   2   174  30   0 32 40 75 67 59 51 43 0
2   3   170  54   0 47 55 63 71 79 78 70 62 54 46 0
2   4   170  54   0 45 53 61 69 77 80 72 64 56 48 0
2   5   100  27   0 44 52 68 76 60 0